(set-info :smt-lib-version 2.6)
(set-logic QF_UF)
(set-info :source |
Generated by: Aman Goel (amangoel@umich.edu), Karem A. Sakallah (karem@umich.edu)
Generated on: 2018-04-06

Generated by the tool Averroes 2 (successor of [1]) which implements safety property
verification on hardware systems.

This SMT problem belongs to a set of SMT problems generated by applying Averroes 2
to benchmarks derived from [2-5].

A total of 412 systems (345 from [2], 19 from [3], 26 from [4], 22 from [5]) were
syntactically converted from their original formats (using [6, 7]), and given to 
Averroes 2 to perform property checking with abstraction (wide bit-vectors -> terms, 
wide operators -> UF) using SMT solvers [8, 9].

[1] Lee S., Sakallah K.A. (2014) Unbounded Scalable Verification Based on Approximate
Property-Directed Reachability and Datapath Abstraction. In: Biere A., Bloem R. (eds)
Computer Aided Verification. CAV 2014. Lecture Notes in Computer Science, vol 8559.
Springer, Cham
[2] http://fmv.jku.at/aiger/index.html#beem
[3] http://www.cs.cmu.edu/~modelcheck/vcegar
[4] http://www.cprover.org/hardware/v2c
[5] http://github.com/aman-goel/verilogbench
[6] http://www.clifford.at/yosys
[7] http://github.com/chengyinwu/V3
[8] http://github.com/Z3Prover/z3
[9] http://github.com/SRI-CSL/yices2

id: production_cell.2.prop1
query-maker: "Yices 2"
query-time: 0.002000 ms
query-class: abstract
query-category: oneshot
query-type: regular
status: unsat
|)
(set-info :license "https://creativecommons.org/licenses/by/4.0/")
(set-info :category "industrial")

;
(set-info :status unsat)
(declare-sort utt$8 0)
(declare-sort utt$32 0)
(declare-fun y$1 () Bool)
(declare-fun y$11 () Bool)
(declare-fun y$13 () Bool)
(declare-fun y$15 () Bool)
(declare-fun y$1522 () Bool)
(declare-fun y$1525 () Bool)
(declare-fun y$1526 () Bool)
(declare-fun y$1559 () Bool)
(declare-fun y$1567 () Bool)
(declare-fun y$17 () Bool)
(declare-fun y$19 () Bool)
(declare-fun y$21 () Bool)
(declare-fun y$23 () Bool)
(declare-fun y$25 () Bool)
(declare-fun y$27 () Bool)
(declare-fun y$29 () Bool)
(declare-fun y$3 () Bool)
(declare-fun y$31 () Bool)
(declare-fun y$33 () Bool)
(declare-fun y$35 () Bool)
(declare-fun y$37 () Bool)
(declare-fun y$39 () Bool)
(declare-fun y$41 () Bool)
(declare-fun y$43 () Bool)
(declare-fun y$45 () Bool)
(declare-fun y$47 () Bool)
(declare-fun y$49 () Bool)
(declare-fun y$5 () Bool)
(declare-fun y$51 () Bool)
(declare-fun y$53 () Bool)
(declare-fun y$55 () Bool)
(declare-fun y$57 () Bool)
(declare-fun y$59 () Bool)
(declare-fun y$62 () Bool)
(declare-fun y$64 () Bool)
(declare-fun y$66 () Bool)
(declare-fun y$68 () Bool)
(declare-fun y$7 () Bool)
(declare-fun y$70 () Bool)
(declare-fun y$72 () Bool)
(declare-fun y$74 () Bool)
(declare-fun y$76 () Bool)
(declare-fun y$78 () Bool)
(declare-fun y$80 () Bool)
(declare-fun y$9 () Bool)
(declare-fun y$a_Apress () Bool)
(declare-fun y$a_Atable () Bool)
(declare-fun y$a_Bdeposit () Bool)
(declare-fun y$a_Bpress () Bool)
(declare-fun y$a_done () Bool)
(declare-fun y$a_down_empty () Bool)
(declare-fun y$a_down_full () Bool)
(declare-fun y$a_got_new () Bool)
(declare-fun y$a_loaded () Bool)
(declare-fun y$a_new_Plate_0 () Bool)
(declare-fun y$a_new_Plate_1 () Bool)
(declare-fun y$a_pressing () Bool)
(declare-fun y$a_q () Bool)
(declare-fun y$a_q1 () Bool)
(declare-fun y$a_q2 () Bool)
(declare-fun y$a_up_empty () Bool)
(declare-fun y$a_up_full () Bool)
(declare-fun y$a_wait_Belt () Bool)
(declare-fun y$a_wait_Deposit () Bool)
(declare-fun y$a_wait_Press () Bool)
(declare-fun y$a_wait_Robot () Bool)
(declare-fun y$a_wait_belt_Plate_0 () Bool)
(declare-fun y$a_wait_belt_Plate_1 () Bool)
(declare-fun y$a_wait_deposit_Plate_0 () Bool)
(declare-fun y$a_wait_deposit_Plate_1 () Bool)
(declare-fun y$a_wait_press_Plate_0 () Bool)
(declare-fun y$a_wait_press_Plate_1 () Bool)
(declare-fun y$a_wait_table_Plate_0 () Bool)
(declare-fun y$a_wait_table_Plate_1 () Bool)
(declare-fun y$dve_invalid () Bool)
(declare-fun y$id44 () Bool)
(declare-fun y$id44_op () Bool)
(declare-fun y$n0s32 () utt$32)
(declare-fun y$n0s8 () utt$8)
(declare-fun y$n1s32 () utt$32)
(declare-fun y$n1s8 () utt$8)
(declare-fun y$n255s8 () utt$8)
(declare-fun y$n5s32 () utt$32)
(declare-fun y$n5s8 () utt$8)
(declare-fun y$prop () Bool)
(declare-fun y$v_A () utt$8)
(declare-fun y$v_B () utt$8)
(declare-fun y$v_at_press () utt$8)
(declare-fun y$v_at_table () utt$8)
(declare-fun y$v_count () utt$8)
(declare-fun y$v_done () utt$8)
(declare-fun y$v_k_Belt () utt$8)
(declare-fun y$v_k_Deposit () utt$8)
(declare-fun y$v_k_Press () utt$8)
(declare-fun y$v_k_Table () utt$8)
(assert (distinct y$n0s8 y$n1s8 y$n255s8 y$n5s8))
(assert (distinct y$n1s32 y$n5s32 y$n0s32))
(assert (= y$a_Apress (not y$1)))
(assert (= y$a_Atable (not y$3)))
(assert (= y$a_Bdeposit (not y$5)))
(assert (= y$a_Bpress (not y$7)))
(assert (= y$a_done (not y$9)))
(assert (= y$a_down_empty (not y$11)))
(assert (= y$a_down_full (not y$13)))
(assert (= y$a_got_new (not y$15)))
(assert (= y$a_loaded (not y$17)))
(assert (= y$a_new_Plate_0 (not y$19)))
(assert (= y$a_new_Plate_1 (not y$21)))
(assert (= y$a_pressing (not y$23)))
(assert (= y$a_q (not y$25)))
(assert (= y$a_q1 (not y$27)))
(assert (= y$a_q2 (not y$29)))
(assert (= y$a_up_empty (not y$31)))
(assert (= y$a_up_full (not y$33)))
(assert (= y$a_wait_Belt (not y$35)))
(assert (= y$a_wait_Deposit (not y$37)))
(assert (= y$a_wait_Press (not y$39)))
(assert (= y$a_wait_Robot (not y$41)))
(assert (= y$a_wait_belt_Plate_0 (not y$43)))
(assert (= y$a_wait_belt_Plate_1 (not y$45)))
(assert (= y$a_wait_deposit_Plate_0 (not y$47)))
(assert (= y$a_wait_deposit_Plate_1 (not y$49)))
(assert (= y$a_wait_press_Plate_0 (not y$51)))
(assert (= y$a_wait_press_Plate_1 (not y$53)))
(assert (= y$a_wait_table_Plate_0 (not y$55)))
(assert (= y$a_wait_table_Plate_1 (not y$57)))
(assert (= y$dve_invalid (not y$59)))
(assert (= y$62 (= y$n0s8 y$v_A)))
(assert (= y$64 (= y$n0s8 y$v_B)))
(assert (= y$66 (= y$n0s8 y$v_at_press)))
(assert (= y$68 (= y$n0s8 y$v_at_table)))
(assert (= y$70 (= y$n0s8 y$v_count)))
(assert (= y$72 (= y$n0s8 y$v_done)))
(assert (= y$74 (= y$n0s8 y$v_k_Belt)))
(assert (= y$76 (= y$n0s8 y$v_k_Deposit)))
(assert (= y$78 (= y$n0s8 y$v_k_Press)))
(assert (= y$80 (= y$n0s8 y$v_k_Table)))
(assert (= y$prop (not y$1559)))
(assert (= y$1522 (= y$n5s8 y$v_done)))
(assert (= y$id44_op (and y$59 y$1522)))
(assert (= y$id44_op (not y$1525)))
(assert (= y$1526 (= y$prop y$1525)))
(assert (= y$1567 (and y$1 y$3 y$5 y$7 y$9 y$11 y$13 y$15 y$17 y$19 y$21 y$23 y$25 y$27 y$29 y$31 y$33 y$35 y$37 y$39 y$41 y$43 y$45 y$47 y$49 y$51 y$53 y$55 y$57 y$59 y$62 y$64 y$66 y$68 y$70 y$72 y$74 y$76 y$78 y$80 y$1559 y$1526)))
(assert y$1567)
(check-sat)
(exit)
